c read Graph
c width = 51
c time = 87 ms
c width = 10
c time = 182 ms
c width = 9
c time = 227 ms
c width = 8
c time = 1646 ms
c width = 8
c time = 4851 ms
s td 56 9 64
b 1 1 2 9
b 2 2 3 9 10
b 3 6 7 15 16
b 4 3 9 10 17
b 5 6 15 16 24
b 6 41 49 50 58
b 7 48 55 56 63
b 8 41 50 58 59
b 9 48 55 62 63
b 10 3 4 5 12
b 11 3 5 11 12 18 25
b 12 3 11 17 18 25
b 13 3 10 11 17 18
b 14 5 11 12 18 21 25 30 32 39
b 15 11 12 18 20 21 25 30 32 39
b 16 11 18 20 21 25 27 30 32 39
b 17 18 20 21 25 26 27 30 32 39
b 18 20 21 25 26 27 29 30 32 39
b 19 20 25 26 27 29 30 32 36 39
b 20 25 26 27 29 30 32 34 36 39
b 21 25 27 29 30 32 34 36 39 41
b 22 27 29 30 32 34 35 36 39 41
b 23 29 30 32 34 35 36 38 39 41
b 24 29 32 34 35 36 38 39 41 45
b 25 32 34 35 36 38 39 41 45 48
b 26 34 35 36 38 39 41 44 45 48
b 27 34 35 38 39 41 44 45 46 48
b 28 34 35 39 41 44 45 46 47 48
b 29 34 35 41 44 45 46 47 48 53
b 30 34 35 41 44 46 47 48 53 60
b 31 46 47 48 53 54 60
b 32 11 18 19 20 27
b 33 29 36 37 38 45
b 34 20 27 28 29 36
b 35 5 12 21 23 30 32 39
b 36 5 12 14 21 23 30 32
b 37 5 14 23 24 32
b 38 5 6 14 23 24
b 39 6 14 15 23 24
b 40 14 21 22 23 30
b 41 5 12 13 14 21
b 42 23 30 31 32 39
b 43 25 33 34 41
b 44 32 39 40 48
b 45 34 35 41 44 51 53 60
b 46 44 51 52 53 60
b 47 34 35 41 42 44 51 60
b 48 41 42 51 59 60
b 49 41 42 50 51 59
b 50 35 42 43 44 51
b 51 47 48 53 54 60 62
b 52 53 60 61 62
b 53 47 48 54 55 62
b 54 56 63 64
b 55 49 57 58
b 56 7 8 16
1 2
2 4
3 56
3 5
4 13
5 39
6 55
6 8
7 54
7 9
8 49
9 53
10 11
11 14
11 12
12 13
14 35
14 15
15 16
16 32
16 17
17 18
18 19
19 34
19 20
20 21
21 43
21 22
22 23
23 24
24 33
24 25
25 44
25 26
26 27
27 28
28 29
29 30
30 45
30 31
31 51
35 42
35 36
36 41
36 40
36 37
37 38
38 39
45 46
45 47
47 48
47 50
48 49
51 52
51 53
